41 
2 
41 -40 
-0.000000000000000000e+00  -0.000000000000000000e+00  -0.000000000000000000e+00  -0.000000000000000000e+00  -0.000000000000000000e+00  -0.000000000000000000e+00  -0.000000000000000000e+00  -0.000000000000000000e+00  -0.000000000000000000e+00  -0.000000000000000000e+00  -0.000000000000000000e+00  -0.000000000000000000e+00  -0.000000000000000000e+00  -0.000000000000000000e+00  -0.000000000000000000e+00  -0.000000000000000000e+00  -0.000000000000000000e+00  -0.000000000000000000e+00  -0.000000000000000000e+00  -0.000000000000000000e+00  -0.000000000000000000e+00  -0.000000000000000000e+00  -0.000000000000000000e+00  -0.000000000000000000e+00  -0.000000000000000000e+00  -0.000000000000000000e+00  -0.000000000000000000e+00  -0.000000000000000000e+00  -0.000000000000000000e+00  -0.000000000000000000e+00  -0.000000000000000000e+00  -0.000000000000000000e+00  -0.000000000000000000e+00  -0.000000000000000000e+00  -0.000000000000000000e+00  -0.000000000000000000e+00  -0.000000000000000000e+00  -0.000000000000000000e+00  -0.000000000000000000e+00  -0.000000000000000000e+00  1.000000000000000000e+00  
0 1 1 3 -6.000000000000000000e+00
0 1 4 4 1.100000000000000000e+01
0 1 1 6 -2.100000000000000000e+01
0 1 2 6 -8.500000000000000000e+00
0 1 5 6 -4.500000000000000000e+00
0 1 5 7 5.000000000000000000e+00
0 1 5 8 2.000000000000000000e+00
0 1 2 9 2.100000000000000000e+01
0 1 3 9 2.100000000000000000e+01
0 1 7 9 1.950000000000000000e+01
0 1 3 10 4.500000000000000000e+00
0 1 2 11 -2.250000000000000000e+01
0 1 3 11 -1.000000000000000000e+01
0 1 8 11 -1.800000000000000000e+01
0 1 3 12 1.100000000000000000e+01
0 1 8 12 -1.000000000000000000e+01
0 1 9 12 1.600000000000000000e+01
0 1 11 12 2.500000000000000000e+00
0 1 12 12 -4.000000000000000000e+00
0 1 1 13 1.700000000000000000e+01
0 1 2 13 2.300000000000000000e+01
0 1 8 13 -1.050000000000000000e+01
0 1 9 13 -4.500000000000000000e+00
0 1 11 13 -2.250000000000000000e+01
0 1 4 14 -1.200000000000000000e+01
0 1 7 14 5.500000000000000000e+00
0 1 9 14 8.500000000000000000e+00
0 1 11 14 2.450000000000000000e+01
0 1 1 15 -1.000000000000000000e+01
0 1 7 15 1.650000000000000000e+01
0 1 8 15 -1.750000000000000000e+01
0 1 11 15 -2.050000000000000000e+01
0 1 6 16 2.100000000000000000e+01
0 1 11 16 8.500000000000000000e+00
0 1 12 16 1.000000000000000000e+01
0 1 14 16 5.500000000000000000e+00
0 1 2 17 1.150000000000000000e+01
0 1 5 17 -3.000000000000000000e+00
0 1 8 17 1.500000000000000000e+01
0 1 9 17 -1.550000000000000000e+01
0 1 10 17 -2.450000000000000000e+01
0 1 12 17 2.150000000000000000e+01
0 1 15 17 1.650000000000000000e+01
0 1 2 18 1.700000000000000000e+01
0 1 6 18 5.500000000000000000e+00
0 1 8 18 -3.500000000000000000e+00
0 1 9 18 -1.750000000000000000e+01
0 1 10 18 -1.000000000000000000e+00
0 1 12 18 9.000000000000000000e+00
0 1 13 18 3.500000000000000000e+00
0 1 2 19 2.250000000000000000e+01
0 1 7 19 -1.450000000000000000e+01
0 1 8 19 -1.450000000000000000e+01
0 1 10 19 1.000000000000000000e+00
0 1 15 19 1.050000000000000000e+01
0 1 18 19 -8.000000000000000000e+00
0 1 4 20 2.000000000000000000e+01
0 1 7 20 -2.400000000000000000e+01
0 1 8 20 -1.200000000000000000e+01
0 1 19 20 -2.500000000000000000e+00
0 1 1 21 -5.500000000000000000e+00
0 1 4 21 8.000000000000000000e+00
0 1 7 21 7.500000000000000000e+00
0 1 9 21 -1.100000000000000000e+01
0 1 10 21 1.400000000000000000e+01
0 1 13 21 7.000000000000000000e+00
0 1 14 21 1.050000000000000000e+01
0 1 16 21 1.600000000000000000e+01
0 1 17 21 7.000000000000000000e+00
0 1 20 21 -2.200000000000000000e+01
0 1 2 22 2.350000000000000000e+01
0 1 6 22 -1.100000000000000000e+01
0 1 8 22 -1.500000000000000000e+00
0 1 10 22 -2.000000000000000000e+00
0 1 11 22 -1.500000000000000000e+00
0 1 20 22 2.400000000000000000e+01
0 1 2 23 -2.350000000000000000e+01
0 1 3 23 -1.600000000000000000e+01
0 1 6 23 -1.850000000000000000e+01
0 1 7 23 9.500000000000000000e+00
0 1 10 23 1.050000000000000000e+01
0 1 14 23 -1.750000000000000000e+01
0 1 15 23 9.500000000000000000e+00
0 1 16 23 -1.650000000000000000e+01
0 1 19 23 -6.500000000000000000e+00
0 1 20 23 4.500000000000000000e+00
0 1 21 23 -1.900000000000000000e+01
0 1 23 23 5.500000000000000000e+00
0 1 7 24 -1.400000000000000000e+01
0 1 8 24 -2.200000000000000000e+01
0 1 20 24 6.500000000000000000e+00
0 1 22 24 5.000000000000000000e+00
0 1 3 25 1.950000000000000000e+01
0 1 5 25 -6.000000000000000000e+00
0 1 9 25 3.000000000000000000e+00
0 1 13 25 -4.000000000000000000e+00
0 1 14 25 7.500000000000000000e+00
0 1 16 25 -1.450000000000000000e+01
0 1 17 25 1.500000000000000000e+00
0 1 18 25 3.500000000000000000e+00
0 1 19 25 9.000000000000000000e+00
0 1 20 25 -1.400000000000000000e+01
0 1 24 25 -1.200000000000000000e+01
0 1 1 26 -7.500000000000000000e+00
0 1 3 26 8.000000000000000000e+00
0 1 4 26 2.000000000000000000e+01
0 1 9 26 9.000000000000000000e+00
0 1 14 26 1.100000000000000000e+01
0 1 1 27 -1.550000000000000000e+01
0 1 11 27 -1.500000000000000000e+01
0 1 13 27 2.150000000000000000e+01
0 1 20 27 -4.000000000000000000e+00
0 1 22 27 -1.450000000000000000e+01
0 1 27 27 1.200000000000000000e+01
0 1 7 28 2.150000000000000000e+01
0 1 14 28 -2.500000000000000000e+00
0 1 16 28 -2.200000000000000000e+01
0 1 18 28 -1.300000000000000000e+01
0 1 22 28 -2.350000000000000000e+01
0 1 2 29 -4.000000000000000000e+00
0 1 6 29 -1.800000000000000000e+01
0 1 13 29 -1.100000000000000000e+01
0 1 15 29 1.300000000000000000e+01
0 1 19 29 -2.250000000000000000e+01
0 1 22 29 -9.000000000000000000e+00
0 1 24 29 5.000000000000000000e-01
0 1 25 29 -1.750000000000000000e+01
0 1 2 30 1.450000000000000000e+01
0 1 4 30 -8.000000000000000000e+00
0 1 5 30 1.800000000000000000e+01
0 1 7 30 -2.100000000000000000e+01
0 1 10 30 -1.000000000000000000e+00
0 1 16 30 -9.500000000000000000e+00
0 1 17 30 1.700000000000000000e+01
0 1 18 30 -2.100000000000000000e+01
0 1 19 30 1.900000000000000000e+01
0 1 21 30 -8.500000000000000000e+00
0 1 29 30 2.350000000000000000e+01
0 1 3 31 1.500000000000000000e+01
0 1 7 31 -7.000000000000000000e+00
0 1 8 31 -1.900000000000000000e+01
0 1 13 31 1.150000000000000000e+01
0 1 16 31 -1.750000000000000000e+01
0 1 17 31 -2.150000000000000000e+01
0 1 20 31 -1.950000000000000000e+01
0 1 22 31 2.500000000000000000e+00
0 1 23 31 -3.000000000000000000e+00
0 1 4 32 -1.650000000000000000e+01
0 1 6 32 -2.150000000000000000e+01
0 1 7 32 -1.350000000000000000e+01
0 1 11 32 -4.000000000000000000e+00
0 1 14 32 2.000000000000000000e+00
0 1 20 32 -1.900000000000000000e+01
0 1 25 32 -1.400000000000000000e+01
0 1 29 32 -1.050000000000000000e+01
0 1 30 32 2.400000000000000000e+01
0 1 32 32 7.500000000000000000e+00
0 1 1 33 -1.800000000000000000e+01
0 1 5 33 -1.700000000000000000e+01
0 1 6 33 1.500000000000000000e+01
0 1 7 33 2.400000000000000000e+01
0 1 14 33 -1.250000000000000000e+01
0 1 17 33 -2.100000000000000000e+01
0 1 19 33 -1.750000000000000000e+01
0 1 25 33 -1.300000000000000000e+01
0 1 1 34 1.500000000000000000e+00
0 1 3 34 -2.000000000000000000e+00
0 1 5 34 2.400000000000000000e+01
0 1 15 34 1.400000000000000000e+01
0 1 21 34 -1.650000000000000000e+01
0 1 22 34 1.500000000000000000e+00
0 1 23 34 2.000000000000000000e+01
0 1 27 34 -1.050000000000000000e+01
0 1 31 34 -2.000000000000000000e+01
0 1 33 34 -2.000000000000000000e+01
0 1 1 35 5.500000000000000000e+00
0 1 3 35 1.700000000000000000e+01
0 1 6 35 -1.000000000000000000e+00
0 1 10 35 2.500000000000000000e+00
0 1 11 35 -1.500000000000000000e+00
0 1 12 35 1.000000000000000000e+00
0 1 19 35 -1.050000000000000000e+01
0 1 21 35 4.500000000000000000e+00
0 1 22 35 -1.600000000000000000e+01
0 1 25 35 -2.150000000000000000e+01
0 1 5 36 -2.150000000000000000e+01
0 1 6 36 6.500000000000000000e+00
0 1 12 36 -1.150000000000000000e+01
0 1 16 36 -8.500000000000000000e+00
0 1 19 36 5.500000000000000000e+00
0 1 22 36 -1.650000000000000000e+01
0 1 27 36 -1.550000000000000000e+01
0 1 29 36 -7.500000000000000000e+00
0 1 30 36 -9.000000000000000000e+00
0 1 32 36 -2.300000000000000000e+01
0 1 35 36 -6.000000000000000000e+00
0 1 6 37 -2.000000000000000000e+00
0 1 7 37 1.450000000000000000e+01
0 1 15 37 -9.000000000000000000e+00
0 1 16 37 7.000000000000000000e+00
0 1 17 37 6.000000000000000000e+00
0 1 19 37 9.500000000000000000e+00
0 1 29 37 -1.900000000000000000e+01
0 1 33 37 2.200000000000000000e+01
0 1 1 38 -1.700000000000000000e+01
0 1 2 38 -2.500000000000000000e+00
0 1 4 38 -2.000000000000000000e+01
0 1 7 38 -2.000000000000000000e+00
0 1 10 38 9.000000000000000000e+00
0 1 14 38 -8.000000000000000000e+00
0 1 15 38 1.700000000000000000e+01
0 1 22 38 -2.450000000000000000e+01
0 1 25 38 -1.300000000000000000e+01
0 1 34 38 9.500000000000000000e+00
0 1 37 38 -1.850000000000000000e+01
0 1 5 39 1.750000000000000000e+01
0 1 6 39 -8.000000000000000000e+00
0 1 10 39 -9.500000000000000000e+00
0 1 11 39 1.950000000000000000e+01
0 1 13 39 1.800000000000000000e+01
0 1 20 39 4.000000000000000000e+00
0 1 23 39 -1.150000000000000000e+01
0 1 33 39 1.550000000000000000e+01
0 1 34 39 -1.350000000000000000e+01
0 1 39 39 1.500000000000000000e+00
0 1 2 40 -3.000000000000000000e+00
0 1 5 40 2.050000000000000000e+01
0 1 7 40 1.500000000000000000e+00
0 1 9 40 2.300000000000000000e+01
0 1 11 40 2.250000000000000000e+01
0 1 24 40 -9.500000000000000000e+00
0 1 27 40 9.500000000000000000e+00
0 1 38 40 1.100000000000000000e+01
0 1 3 41 1.450000000000000000e+01
0 1 4 41 -5.000000000000000000e-01
0 1 7 41 1.700000000000000000e+01
0 1 8 41 1.850000000000000000e+01
0 1 13 41 1.350000000000000000e+01
0 1 15 41 8.500000000000000000e+00
0 1 21 41 5.000000000000000000e+00
0 1 22 41 -1.500000000000000000e+00
0 1 25 41 2.200000000000000000e+01
0 1 27 41 2.050000000000000000e+01
0 1 33 41 1.150000000000000000e+01
0 1 41 41 -2.050000000000000000e+01
1 1 1 2 5.000000000000000000e-01
1 1 2 2 -1.000000000000000000e+00
1 2 1 1 -1.000000000000000000e+00
2 1 1 3 5.000000000000000000e-01
2 1 3 3 -1.000000000000000000e+00
2 2 2 2 -1.000000000000000000e+00
3 1 1 4 5.000000000000000000e-01
3 1 4 4 -1.000000000000000000e+00
3 2 3 3 -1.000000000000000000e+00
4 1 1 5 5.000000000000000000e-01
4 1 5 5 -1.000000000000000000e+00
4 2 4 4 -1.000000000000000000e+00
5 1 1 6 5.000000000000000000e-01
5 1 6 6 -1.000000000000000000e+00
5 2 5 5 -1.000000000000000000e+00
6 1 1 7 5.000000000000000000e-01
6 1 7 7 -1.000000000000000000e+00
6 2 6 6 -1.000000000000000000e+00
7 1 1 8 5.000000000000000000e-01
7 1 8 8 -1.000000000000000000e+00
7 2 7 7 -1.000000000000000000e+00
8 1 1 9 5.000000000000000000e-01
8 1 9 9 -1.000000000000000000e+00
8 2 8 8 -1.000000000000000000e+00
9 1 1 10 5.000000000000000000e-01
9 1 10 10 -1.000000000000000000e+00
9 2 9 9 -1.000000000000000000e+00
10 1 1 11 5.000000000000000000e-01
10 1 11 11 -1.000000000000000000e+00
10 2 10 10 -1.000000000000000000e+00
11 1 1 12 5.000000000000000000e-01
11 1 12 12 -1.000000000000000000e+00
11 2 11 11 -1.000000000000000000e+00
12 1 1 13 5.000000000000000000e-01
12 1 13 13 -1.000000000000000000e+00
12 2 12 12 -1.000000000000000000e+00
13 1 1 14 5.000000000000000000e-01
13 1 14 14 -1.000000000000000000e+00
13 2 13 13 -1.000000000000000000e+00
14 1 1 15 5.000000000000000000e-01
14 1 15 15 -1.000000000000000000e+00
14 2 14 14 -1.000000000000000000e+00
15 1 1 16 5.000000000000000000e-01
15 1 16 16 -1.000000000000000000e+00
15 2 15 15 -1.000000000000000000e+00
16 1 1 17 5.000000000000000000e-01
16 1 17 17 -1.000000000000000000e+00
16 2 16 16 -1.000000000000000000e+00
17 1 1 18 5.000000000000000000e-01
17 1 18 18 -1.000000000000000000e+00
17 2 17 17 -1.000000000000000000e+00
18 1 1 19 5.000000000000000000e-01
18 1 19 19 -1.000000000000000000e+00
18 2 18 18 -1.000000000000000000e+00
19 1 1 20 5.000000000000000000e-01
19 1 20 20 -1.000000000000000000e+00
19 2 19 19 -1.000000000000000000e+00
20 1 1 21 5.000000000000000000e-01
20 1 21 21 -1.000000000000000000e+00
20 2 20 20 -1.000000000000000000e+00
21 1 1 22 5.000000000000000000e-01
21 1 22 22 -1.000000000000000000e+00
21 2 21 21 -1.000000000000000000e+00
22 1 1 23 5.000000000000000000e-01
22 1 23 23 -1.000000000000000000e+00
22 2 22 22 -1.000000000000000000e+00
23 1 1 24 5.000000000000000000e-01
23 1 24 24 -1.000000000000000000e+00
23 2 23 23 -1.000000000000000000e+00
24 1 1 25 5.000000000000000000e-01
24 1 25 25 -1.000000000000000000e+00
24 2 24 24 -1.000000000000000000e+00
25 1 1 26 5.000000000000000000e-01
25 1 26 26 -1.000000000000000000e+00
25 2 25 25 -1.000000000000000000e+00
26 1 1 27 5.000000000000000000e-01
26 1 27 27 -1.000000000000000000e+00
26 2 26 26 -1.000000000000000000e+00
27 1 1 28 5.000000000000000000e-01
27 1 28 28 -1.000000000000000000e+00
27 2 27 27 -1.000000000000000000e+00
28 1 1 29 5.000000000000000000e-01
28 1 29 29 -1.000000000000000000e+00
28 2 28 28 -1.000000000000000000e+00
29 1 1 30 5.000000000000000000e-01
29 1 30 30 -1.000000000000000000e+00
29 2 29 29 -1.000000000000000000e+00
30 1 1 31 5.000000000000000000e-01
30 1 31 31 -1.000000000000000000e+00
30 2 30 30 -1.000000000000000000e+00
31 1 1 32 5.000000000000000000e-01
31 1 32 32 -1.000000000000000000e+00
31 2 31 31 -1.000000000000000000e+00
32 1 1 33 5.000000000000000000e-01
32 1 33 33 -1.000000000000000000e+00
32 2 32 32 -1.000000000000000000e+00
33 1 1 34 5.000000000000000000e-01
33 1 34 34 -1.000000000000000000e+00
33 2 33 33 -1.000000000000000000e+00
34 1 1 35 5.000000000000000000e-01
34 1 35 35 -1.000000000000000000e+00
34 2 34 34 -1.000000000000000000e+00
35 1 1 36 5.000000000000000000e-01
35 1 36 36 -1.000000000000000000e+00
35 2 35 35 -1.000000000000000000e+00
36 1 1 37 5.000000000000000000e-01
36 1 37 37 -1.000000000000000000e+00
36 2 36 36 -1.000000000000000000e+00
37 1 1 38 5.000000000000000000e-01
37 1 38 38 -1.000000000000000000e+00
37 2 37 37 -1.000000000000000000e+00
38 1 1 39 5.000000000000000000e-01
38 1 39 39 -1.000000000000000000e+00
38 2 38 38 -1.000000000000000000e+00
39 1 1 40 5.000000000000000000e-01
39 1 40 40 -1.000000000000000000e+00
39 2 39 39 -1.000000000000000000e+00
40 1 1 41 5.000000000000000000e-01
40 1 41 41 -1.000000000000000000e+00
40 2 40 40 -1.000000000000000000e+00
41 1 1 1 1.000000000000000000e+00
